results_rootrelaxation/bin018_050_000.srr.sol
solution status: optimal solution found
objective value:                                    0
_var257_                            0.208336587301414 	(obj:0)
_var326_                            0.123704662642671 	(obj:0)
_var577_                           0.0717779028687179 	(obj:0)
_var1685_                          0.0185629502868999 	(obj:0)
_var2660_                           0.230758678360387 	(obj:0)
_var2663_                            0.26174969906728 	(obj:0)
_var2671_                          0.0148661239035639 	(obj:0)
_var2675_                           0.396324269110088 	(obj:0)
_var2676_                           0.171960904072319 	(obj:0)
_var2680_                           0.054076267220667 	(obj:0)
_var2683_                           0.184732905537119 	(obj:0)
_var2684_                           0.180710682476036 	(obj:0)
_var2685_                           0.195768146411517 	(obj:0)
_var2687_                          0.0495861741553985 	(obj:0)
_var2691_                          0.0808441542289067 	(obj:0)
_var2694_                         0.00897735455180532 	(obj:0)
_var2695_                           0.305126291406606 	(obj:0)
_var2699_                          0.0792056003288532 	(obj:0)
_var2704_                          0.0519713539405016 	(obj:0)
_var2705_                           0.140179966199949 	(obj:0)
_var2712_                           0.258725471306394 	(obj:0)
_var2713_                          0.0875078099866698 	(obj:0)
_var2718_                             0.2673710040883 	(obj:0)
_var2720_                           0.184586159379637 	(obj:0)
_var2721_                           0.136833442810056 	(obj:0)
_var2723_                            0.11252656132395 	(obj:0)
_var2724_                          0.0169571531654072 	(obj:0)
_var2730_                           0.102234891615857 	(obj:0)
_var2734_                           0.277986866880717 	(obj:0)
_var2738_                         0.00910963315444981 	(obj:0)
_var2742_                           0.200215384631943 	(obj:0)
_var2747_                           0.288486002440065 	(obj:0)
_var2751_                          0.0527045491917102 	(obj:0)
_var2756_                           0.174630770280174 	(obj:0)
_var2757_                           0.144847356262998 	(obj:0)
_var2758_                           0.244284930101883 	(obj:0)
_var2760_                           0.366577647292618 	(obj:0)
_var2761_                           0.056463949856504 	(obj:0)
_var2762_                           0.143921611097132 	(obj:0)
_var2763_                         0.00132537473064459 	(obj:0)
_var2764_                         0.00876118009026338 	(obj:0)
_var2765_                          0.0668640931993056 	(obj:0)
_var2767_                           0.178609069345717 	(obj:0)
_var2769_                           0.112580940578262 	(obj:0)
_var2770_                          0.0400995159451606 	(obj:0)
_var2771_                           0.031379797304459 	(obj:0)
_var2772_                          0.0509593390080162 	(obj:0)
_var2775_                         0.00182592483440458 	(obj:0)
_var2780_                           0.209009984880108 	(obj:0)
_var2781_                           0.228062212474274 	(obj:0)
_var2782_                           0.227632418567002 	(obj:0)
_var2785_                          0.0198788667038266 	(obj:0)
_var2789_                           0.113299383637321 	(obj:0)
_var2790_                          0.0615098221353123 	(obj:0)
_var2792_                           0.293693494230949 	(obj:0)
_var2793_                          0.0469434974288281 	(obj:0)
_var2800_                           0.395187256374485 	(obj:0)
_var2801_                           0.123103695257966 	(obj:0)
_var2804_                           0.337552871368852 	(obj:0)
_var2806_                          0.0611340974786054 	(obj:0)
_var2811_                          0.0548634328540605 	(obj:0)
_var2812_                          0.0139173703580931 	(obj:0)
_var2813_                           0.211862437395176 	(obj:0)
_var2815_                           0.183783475964466 	(obj:0)
_var2816_                           0.147979970188795 	(obj:0)
_var2817_                          0.0545007464063493 	(obj:0)
_var2818_                          0.0831395824022547 	(obj:0)
_var2820_                          0.0284559960678011 	(obj:0)
_var2821_                           0.354801563405752 	(obj:0)
_var2822_                          0.0255634647131014 	(obj:0)
_var2824_                           0.172582947671224 	(obj:0)
_var2825_                         0.00616120831747533 	(obj:0)
_var2826_                          0.0435590852068182 	(obj:0)
_var2832_                          0.0663854049834217 	(obj:0)
_var2836_                           0.011417177941001 	(obj:0)
_var2839_                           0.148565153326325 	(obj:0)
_var2840_                           0.107399270851386 	(obj:0)
_var2842_                          0.0121345836478457 	(obj:0)
_var2843_                          0.0755831722615631 	(obj:0)
_var2844_                           0.336220129972837 	(obj:0)
_var2845_                          0.0398835793298232 	(obj:0)
_var2846_                           0.256556706903578 	(obj:0)
_var2847_                            0.19212957145242 	(obj:0)
_var2851_                           0.062894101931853 	(obj:0)
_var2852_                          0.0426176034057037 	(obj:0)
_var2854_                           0.123586795466326 	(obj:0)
_var2856_                           0.119580089740939 	(obj:0)
_var2857_                           0.049907656309759 	(obj:0)
_var2859_                           0.399336276778532 	(obj:0)
_var2860_                          0.0768421464066967 	(obj:0)
_var2863_                           0.141066792522606 	(obj:0)
_var2864_                           0.127885837907975 	(obj:0)
_var2865_                           0.105258079397588 	(obj:0)
_var2867_                           0.111283637998847 	(obj:0)
_var2868_                          0.0447422043792871 	(obj:0)
_var2869_                          0.0428145080378139 	(obj:0)
_var2873_                          0.0936908263606672 	(obj:0)
_var2874_                          0.0521567657720304 	(obj:0)
_var2875_                           0.189265274541121 	(obj:0)
_var2880_                           0.189885593620417 	(obj:0)
_var2881_                          0.0188554416442107 	(obj:0)
_var2882_                          0.0548621962237848 	(obj:0)
_var2883_                          0.0347790224449831 	(obj:0)
_var2885_                          0.0626917941241707 	(obj:0)
_var2886_                           0.222013649837654 	(obj:0)
_var2887_                           0.134221151729826 	(obj:0)
_var2888_                          0.0447036111091506 	(obj:0)
_var2890_                          0.0201354785744069 	(obj:0)
_var2892_                         0.00724025661336607 	(obj:0)
_var2894_                         0.00810910655868076 	(obj:0)
_var2895_                           0.214784562627569 	(obj:0)
_var2896_                          0.0848298122487063 	(obj:0)
_var2899_                          0.0520290558070663 	(obj:0)
_var2902_                           0.217990278569487 	(obj:0)
_var2903_                          0.0733815029853755 	(obj:0)
_var2904_                           0.141810780732684 	(obj:0)
_var2905_                           0.161710656056365 	(obj:0)
_var2907_                           0.147264367141808 	(obj:0)
_var2908_                           0.163634804754366 	(obj:0)
_var2910_                          0.0110311824580989 	(obj:0)
_var2911_                          0.0173907041162897 	(obj:0)
_var2913_                           0.057521259164704 	(obj:0)
_var2914_                          0.0967864307550784 	(obj:0)
_var2915_                          0.0656090675908951 	(obj:0)
_var2919_                          0.0321706480116572 	(obj:0)
_var2921_                          0.0526729293158532 	(obj:0)
_var2922_                          0.0494331649467447 	(obj:0)
_var2924_                          0.0320720217785466 	(obj:0)
_var2925_                           0.151124249301536 	(obj:0)
_var2927_                          0.0457475555735814 	(obj:0)
_var2928_                          0.0984987325620255 	(obj:0)
_var2929_                          0.0918106595195531 	(obj:0)
_var2931_                          0.0733622519114049 	(obj:0)
_var2933_                          0.0136635462478079 	(obj:0)
_var2935_                          0.0569418569964382 	(obj:0)
_var2936_                          0.0272352654277105 	(obj:0)
_var2937_                          0.0913014557229612 	(obj:0)
_var2938_                            0.11372667976401 	(obj:0)
_var2941_                           0.103850531729248 	(obj:0)
_var2942_                         0.00288382882657359 	(obj:0)
_var2944_                           0.144510612994847 	(obj:0)
_var2945_                          0.0810754548296321 	(obj:0)
_var2952_                          0.0734720567616686 	(obj:0)
_var2953_                              0.102587704775 	(obj:0)
_var2954_                          0.0638133326756956 	(obj:0)
_var2955_                          0.0108480922032553 	(obj:0)
_var2956_                          0.0314471492110105 	(obj:0)
_var2958_                          0.0933121099508627 	(obj:0)
_var2960_                          0.0128253010669754 	(obj:0)
_var2963_                         0.00511536956387542 	(obj:0)
_var2979_                          0.0421800957256499 	(obj:0)
_var2980_                          0.0240662420264873 	(obj:0)
