results_rootrelaxation/bin018_050_000.srr.log
SCIP version 8.0.3.5 [precision: 8 byte] [memory: block] [mode: optimized] [LP solver: Soplex 6.0.1.3] [GitHash: 438792519e]
Copyright (c) 2002-2023 Zuse Institute Berlin (ZIB)

External libraries: 
  Readline 8.1         GNU library for command line editing (gnu.org/s/readline)
  Soplex 6.0.1.3       Linear Programming Solver developed at Zuse Institute Berlin (soplex.zib.de) [GitHash: 713be0fe]
  CppAD 20180000.0     Algorithmic Differentiation of C++ algorithms developed by B. Bell (github.com/coin-or/CppAD)
  ZLIB 1.2.11          General purpose compression library by J. Gailly and M. Adler (zlib.net)
  bliss 0.77           Computing Graph Automorphism Groups by T. Junttila and P. Kaski (www.tcs.hut.fi/Software/bliss/)

user parameter file <scip.set> not found - using default parameters

srr/relaxation = TRUE

read problem <instances/bin018_050_000.srr>
============

Original problem: 
original problem has 0 variables (0 bin, 0 int, 0 impl, 0 cont) and 170 constraints

presolving:
presolving (1 rounds: 1 fast, 1 medium, 1 exhaustive):
 0 deleted vars, 0 deleted constraints, 0 added constraints, 0 tightened bounds, 0 added holes, 0 changed sides, 0 changed coefficients
 0 implications, 0 cliques
presolved problem has 0 variables (0 bin, 0 int, 0 impl, 0 cont) and 170 constraints
    170 constraints of type <linear>
Presolving Time: 0.00

 time | node  | left  |LP iter|LP it/n|mem/heur|mdpt |vars |cons |rows |cuts |sepa|confs|strbr|  dualbound   | primalbound  |  gap   | compl. 
  0.0s|     1 |     0 |     1 |     - |   922k |   0 |   1 | 170 | 170 |   0 |  0 |   0 |   0 |      --      |      --      |    Inf | unknown
  0.2s|     1 |     0 |  1063 |     - |  7253k |   0 |1604 | 170 | 170 |   0 |  0 |   0 |   0 |      --      |      --      |    Inf | unknown
r 0.9s|     1 |     0 |  6361 |     - |simplero|   0 |2658 | 170 | 170 |   0 |  0 |   0 |   0 |      --      | 3.247021e+01 |    Inf | unknown
r 0.9s|     1 |     0 |  6462 |     - |simplero|   0 |2675 | 170 | 170 |   0 |  0 |   0 |   0 |      --      | 3.068873e+01 |    Inf | unknown
r 0.9s|     1 |     0 |  6581 |     - |simplero|   0 |2692 | 170 | 170 |   0 |  0 |   0 |   0 |      --      | 2.871047e+01 |    Inf | unknown
r 1.0s|     1 |     0 |  6715 |     - |simplero|   0 |2709 | 170 | 170 |   0 |  0 |   0 |   0 |      --      | 2.675705e+01 |    Inf | unknown
r 1.0s|     1 |     0 |  6828 |     - |simplero|   0 |2726 | 170 | 170 |   0 |  0 |   0 |   0 |      --      | 2.479486e+01 |    Inf | unknown
r 1.0s|     1 |     0 |  6886 |     - |simplero|   0 |2726 | 170 | 170 |   0 |  0 |   0 |   0 |      --      | 2.423786e+01 |    Inf | unknown
r 1.0s|     1 |     0 |  6906 |     - |simplero|   0 |2726 | 170 | 170 |   0 |  0 |   0 |   0 |      --      | 2.421163e+01 |    Inf | unknown
r 1.0s|     1 |     0 |  7048 |     - |simplero|   0 |2743 | 170 | 170 |   0 |  0 |   0 |   0 |      --      | 2.098164e+01 |    Inf | unknown
r 1.0s|     1 |     0 |  7078 |     - |simplero|   0 |2743 | 170 | 170 |   0 |  0 |   0 |   0 |      --      | 2.073030e+01 |    Inf | unknown
r 1.0s|     1 |     0 |  7087 |     - |simplero|   0 |2743 | 170 | 170 |   0 |  0 |   0 |   0 |      --      | 2.072460e+01 |    Inf | unknown
r 1.1s|     1 |     0 |  7176 |     - |simplero|   0 |2760 | 170 | 170 |   0 |  0 |   0 |   0 |      --      | 1.961615e+01 |    Inf | unknown
r 1.1s|     1 |     0 |  7270 |     - |simplero|   0 |2760 | 170 | 170 |   0 |  0 |   0 |   0 |      --      | 1.872766e+01 |    Inf | unknown
r 1.1s|     1 |     0 |  7327 |     - |simplero|   0 |2760 | 170 | 170 |   0 |  0 |   0 |   0 |      --      | 1.829427e+01 |    Inf | unknown
 time | node  | left  |LP iter|LP it/n|mem/heur|mdpt |vars |cons |rows |cuts |sepa|confs|strbr|  dualbound   | primalbound  |  gap   | compl. 
r 1.1s|     1 |     0 |  7339 |     - |simplero|   0 |2760 | 170 | 170 |   0 |  0 |   0 |   0 |      --      | 1.828549e+01 |    Inf | unknown
r 1.1s|     1 |     0 |  7483 |     - |simplero|   0 |2777 | 170 | 170 |   0 |  0 |   0 |   0 |      --      | 1.621561e+01 |    Inf | unknown
r 1.1s|     1 |     0 |  7532 |     - |simplero|   0 |2777 | 170 | 170 |   0 |  0 |   0 |   0 |      --      | 1.594725e+01 |    Inf | unknown
r 1.1s|     1 |     0 |  7538 |     - |simplero|   0 |2777 | 170 | 170 |   0 |  0 |   0 |   0 |      --      | 1.594310e+01 |    Inf | unknown
r 1.1s|     1 |     0 |  7675 |     - |simplero|   0 |2794 | 170 | 170 |   0 |  0 |   0 |   0 |      --      | 1.396148e+01 |    Inf | unknown
r 1.1s|     1 |     0 |  7744 |     - |simplero|   0 |2794 | 170 | 170 |   0 |  0 |   0 |   0 |      --      | 1.369481e+01 |    Inf | unknown
r 1.1s|     1 |     0 |  7771 |     - |simplero|   0 |2794 | 170 | 170 |   0 |  0 |   0 |   0 |      --      | 1.362605e+01 |    Inf | unknown
r 1.2s|     1 |     0 |  7962 |     - |simplero|   0 |2811 | 170 | 170 |   0 |  0 |   0 |   0 |      --      | 1.107736e+01 |    Inf | unknown
r 1.2s|     1 |     0 |  8027 |     - |simplero|   0 |2811 | 170 | 170 |   0 |  0 |   0 |   0 |      --      | 1.083834e+01 |    Inf | unknown
r 1.2s|     1 |     0 |  8046 |     - |simplero|   0 |2811 | 170 | 170 |   0 |  0 |   0 |   0 |      --      | 1.083021e+01 |    Inf | unknown
r 1.2s|     1 |     0 |  8049 |     - |simplero|   0 |2811 | 170 | 170 |   0 |  0 |   0 |   0 |      --      | 1.083009e+01 |    Inf | unknown
r 1.2s|     1 |     0 |  8198 |     - |simplero|   0 |2828 | 170 | 170 |   0 |  0 |   0 |   0 |      --      | 9.089332e+00 |    Inf | unknown
r 1.2s|     1 |     0 |  8256 |     - |simplero|   0 |2828 | 170 | 170 |   0 |  0 |   0 |   0 |      --      | 8.975631e+00 |    Inf | unknown
r 1.2s|     1 |     0 |  8360 |     - |simplero|   0 |2845 | 170 | 170 |   0 |  0 |   0 |   0 |      --      | 8.187152e+00 |    Inf | unknown
r 1.2s|     1 |     0 |  8432 |     - |simplero|   0 |2845 | 170 | 170 |   0 |  0 |   0 |   0 |      --      | 7.880191e+00 |    Inf | unknown
 time | node  | left  |LP iter|LP it/n|mem/heur|mdpt |vars |cons |rows |cuts |sepa|confs|strbr|  dualbound   | primalbound  |  gap   | compl. 
r 1.2s|     1 |     0 |  8433 |     - |simplero|   0 |2845 | 170 | 170 |   0 |  0 |   0 |   0 |      --      | 7.880180e+00 |    Inf | unknown
r 1.2s|     1 |     0 |  8574 |     - |simplero|   0 |2862 | 170 | 170 |   0 |  0 |   0 |   0 |      --      | 6.283828e+00 |    Inf | unknown
r 1.3s|     1 |     0 |  8645 |     - |simplero|   0 |2862 | 170 | 170 |   0 |  0 |   0 |   0 |      --      | 5.936321e+00 |    Inf | unknown
r 1.3s|     1 |     0 |  8777 |     - |simplero|   0 |2879 | 170 | 170 |   0 |  0 |   0 |   0 |      --      | 4.256526e+00 |    Inf | unknown
r 1.3s|     1 |     0 |  8800 |     - |simplero|   0 |2879 | 170 | 170 |   0 |  0 |   0 |   0 |      --      | 4.217466e+00 |    Inf | unknown
  1.3s|     1 |     0 |  8806 |     - |    14M |   0 |2879 | 170 | 170 |   0 |  0 |   0 |   0 |      --      | 4.217466e+00 |    Inf | unknown
r 1.3s|     1 |     0 |  8806 |     - |simplero|   0 |2879 | 170 | 170 |   0 |  0 |   0 |   0 |      --      | 4.215961e+00 |    Inf | unknown
r 1.3s|     1 |     0 |  8923 |     - |simplero|   0 |2896 | 170 | 170 |   0 |  0 |   0 |   0 |      --      | 3.416488e+00 |    Inf | unknown
r 1.3s|     1 |     0 |  9025 |     - |simplero|   0 |2896 | 170 | 170 |   0 |  0 |   0 |   0 |      --      | 3.013544e+00 |    Inf | unknown
r 1.3s|     1 |     0 |  9061 |     - |simplero|   0 |2896 | 170 | 170 |   0 |  0 |   0 |   0 |      --      | 2.899443e+00 |    Inf | unknown
r 1.3s|     1 |     0 |  9071 |     - |simplero|   0 |2896 | 170 | 170 |   0 |  0 |   0 |   0 |      --      | 2.891706e+00 |    Inf | unknown
r 1.3s|     1 |     0 |  9178 |     - |simplero|   0 |2913 | 170 | 170 |   0 |  0 |   0 |   0 |      --      | 2.074382e+00 |    Inf | unknown
r 1.4s|     1 |     0 |  9217 |     - |simplero|   0 |2913 | 170 | 170 |   0 |  0 |   0 |   0 |      --      | 1.891968e+00 |    Inf | unknown
r 1.4s|     1 |     0 |  9312 |     - |simplero|   0 |2930 | 170 | 170 |   0 |  0 |   0 |   0 |      --      | 1.151352e+00 |    Inf | unknown
r 1.4s|     1 |     0 |  9349 |     - |simplero|   0 |2930 | 170 | 170 |   0 |  0 |   0 |   0 |      --      | 1.092525e+00 |    Inf | unknown
 time | node  | left  |LP iter|LP it/n|mem/heur|mdpt |vars |cons |rows |cuts |sepa|confs|strbr|  dualbound   | primalbound  |  gap   | compl. 
r 1.4s|     1 |     0 |  9361 |     - |simplero|   0 |2930 | 170 | 170 |   0 |  0 |   0 |   0 |      --      | 1.077966e+00 |    Inf | unknown
r 1.4s|     1 |     0 |  9488 |     - |simplero|   0 |2947 | 170 | 170 |   0 |  0 |   0 |   0 |      --      | 4.325583e-01 |    Inf | unknown
r 1.4s|     1 |     0 |  9526 |     - |simplero|   0 |2947 | 170 | 170 |   0 |  0 |   0 |   0 |      --      | 3.874135e-01 |    Inf | unknown
r 1.4s|     1 |     0 |  9605 |     - |simplero|   0 |2964 | 170 | 170 |   0 |  0 |   0 |   0 |      --      | 8.618481e-02 |    Inf | unknown
r 1.4s|     1 |     0 |  9608 |     - |simplero|   0 |2964 | 170 | 170 |   0 |  0 |   0 |   0 |      --      | 8.608444e-02 |    Inf | unknown
r 1.4s|     1 |     0 |  9622 |     - |simplero|   0 |2981 | 170 | 170 |   0 |  0 |   0 |   0 |      --      | 0.000000e+00 |    Inf | unknown
  1.4s|     1 |     0 |  9622 |     - |    15M |   0 |2981 | 170 | 170 |   0 |  0 |   0 |   0 | 0.000000e+00 | 0.000000e+00 |   0.00%| unknown
  1.4s|     1 |     0 |  9622 |     - |    15M |   0 |2981 | 170 | 170 |   0 |  0 |   0 |   0 | 0.000000e+00 | 0.000000e+00 |   0.00%| unknown

SCIP Status        : problem is solved [optimal solution found]
Solving Time (sec) : 1.44
Solving Nodes      : 1
Primal Bound       : +0.00000000000000e+00 (48 solutions)
Dual Bound         : +0.00000000000000e+00
Gap                : 0.00 %

written transformed problem to file <results_rootrelaxation/bin018_050_000.srr.lp>
written transformed problem to file <results_rootrelaxation/bin018_050_000.srr.cip>

written solution information to file <results_rootrelaxation/bin018_050_000.srr.sol>



